NAME          COPTPROB
OBJSENSE
  MIN
ROWS
 N  __OBJ___
 L  C0      
 L  C5      
 L  C11     
 L  C12     
 L  C27     
 L  C31     
 L  C32     
 L  C33     
 L  C49     
 L  C57     
 L  C71     
 L  C84     
 L  C95     
 L  C111    
 L  C115    
 L  C127    
 L  C133    
 L  C138    
 L  C139    
 L  C141    
 L  C164    
 L  C175    
 L  C178    
 L  C188    
 L  C191    
 L  C195    
COLUMNS
    MARKER    'MARKER'                 'INTORG'
    x47       __OBJ___  14
    x47       C138      -1
    x74       __OBJ___  75
    x74       C127      -1
    x74       C141      -1
    x376      __OBJ___  8
    x376      C32       -1
    x376      C195      -1
    x452      __OBJ___  63
    x452      C57       -1
    x452      C138      -1
    x737      __OBJ___  20
    x737      C139      -1
    x737      C188      -1
    x783      __OBJ___  47
    x783      C27       -1
    x783      C95       -1
    x1158     __OBJ___  23
    x1158     C115      -1
    x1158     C178      -1
    x1374     __OBJ___  15
    x1374     C5        -1
    x1442     __OBJ___  46
    x1442     C141      -1
    x1700     __OBJ___  35
    x1700     C95       -1
    x1751     __OBJ___  33
    x1751     C71       -1
    x1751     C133      -1
    x1835     __OBJ___  15
    x1835     C12       -1
    x1835     C138      -1
    x1868     __OBJ___  15
    x1868     C138      -1
    x1868     C178      -1
    x1994     __OBJ___  14
    x1994     C31       -1
    x1994     C32       -1
    x2056     __OBJ___  18
    x2056     C11       -1
    x2173     __OBJ___  1
    x2173     C32       -1
    x2326     __OBJ___  11
    x2326     C12       -1
    x2326     C188      -1
    x2334     __OBJ___  17
    x2334     C5        -1
    x2334     C191      -1
    x2341     __OBJ___  37
    x2341     C49       -1
    x2341     C111      -1
    x2722     __OBJ___  87
    x2722     C57       -1
    x2722     C175      -1
    x2868     __OBJ___  22
    x2868     C11       -1
    x2868     C84       -1
    x2900     __OBJ___  42
    x2900     C95       -1
    x2900     C175      -1
    x3126     __OBJ___  36
    x3126     C33       -1
    x3126     C115      -1
    x3154     __OBJ___  29
    x3154     C5        -1
    x3154     C71       -1
    x3161     __OBJ___  47
    x3161     C127      -1
    x3161     C164      -1
    x3302     __OBJ___  53
    x3302     C33       -1
    x3302     C95       -1
    x3723     __OBJ___  34
    x3723     C127      -1
    x3758     __OBJ___  49
    x3758     C138      -1
    x3758     C141      -1
    x4093     __OBJ___  32
    x4093     C11       -1
    x4093     C164      -1
    x4210     __OBJ___  28
    x4210     C71       -1
    x4210     C195      -1
    x4423     __OBJ___  53
    x4423     C0        -1
    x4423     C133      -1
    x4472     __OBJ___  70
    x4472     C49       -1
    x4472     C141      -1
    x4538     __OBJ___  18
    x4538     C139      -1
    x4764     __OBJ___  41
    x4764     C27       -1
    x4764     C191      -1
    x5297     __OBJ___  28
    x5297     C0        -1
    x5297     C49       -1
    x5305     __OBJ___  22
    x5305     C84       -1
    x5305     C139      -1
    x5471     __OBJ___  21
    x5471     C164      -1
    x5774     __OBJ___  14
    x5774     C31       -1
    x5774     C111      -1
    MARKER    'MARKER'                 'INTEND'
RHS
    RHS       __OBJ___  -1971
    RHS       C0        -1
    RHS       C5        -1
    RHS       C11       -1
    RHS       C12       -1
    RHS       C27       -1
    RHS       C31       -1
    RHS       C32       -1
    RHS       C33       -1
    RHS       C49       -1
    RHS       C57       -1
    RHS       C71       -1
    RHS       C84       -1
    RHS       C95       -1
    RHS       C111      -1
    RHS       C115      -1
    RHS       C127      -1
    RHS       C133      -1
    RHS       C138      -1
    RHS       C139      -1
    RHS       C141      -1
    RHS       C164      -1
    RHS       C175      -1
    RHS       C178      -1
    RHS       C188      -1
    RHS       C191      -1
    RHS       C195      -1
BOUNDS
 UP BOUND     x47       1
 UP BOUND     x74       1
 UP BOUND     x376      1
 UP BOUND     x452      1
 UP BOUND     x737      1
 UP BOUND     x783      1
 UP BOUND     x1158     1
 UP BOUND     x1374     1
 UP BOUND     x1442     1
 UP BOUND     x1700     1
 UP BOUND     x1751     1
 UP BOUND     x1835     1
 UP BOUND     x1868     1
 UP BOUND     x1994     1
 UP BOUND     x2056     1
 UP BOUND     x2173     1
 UP BOUND     x2326     1
 UP BOUND     x2334     1
 UP BOUND     x2341     1
 UP BOUND     x2722     1
 UP BOUND     x2868     1
 UP BOUND     x2900     1
 UP BOUND     x3126     1
 UP BOUND     x3154     1
 UP BOUND     x3161     1
 UP BOUND     x3302     1
 UP BOUND     x3723     1
 UP BOUND     x3758     1
 UP BOUND     x4093     1
 UP BOUND     x4210     1
 UP BOUND     x4423     1
 UP BOUND     x4472     1
 UP BOUND     x4538     1
 UP BOUND     x4764     1
 UP BOUND     x5297     1
 UP BOUND     x5305     1
 UP BOUND     x5471     1
 UP BOUND     x5774     1
ENDATA
